bound = 157;
n = 10;
p = 5;
num_edges = 90;
E = array2d(1..num_edges, 1..2, [
1,2
,1,3
,1,4
,1,5
,1,6
,1,7
,1,8
,1,9
,1,10
,2,1
,2,3
,2,4
,2,5
,2,6
,2,7
,2,8
,2,9
,2,10
,3,1
,3,2
,3,4
,3,5
,3,6
,3,7
,3,8
,3,9
,3,10
,4,1
,4,2
,4,3
,4,5
,4,6
,4,7
,4,8
,4,9
,4,10
,5,1
,5,2
,5,3
,5,4
,5,6
,5,7
,5,8
,5,9
,5,10
,6,1
,6,2
,6,3
,6,4
,6,5
,6,7
,6,8
,6,9
,6,10
,7,1
,7,2
,7,3
,7,4
,7,5
,7,6
,7,8
,7,9
,7,10
,8,1
,8,2
,8,3
,8,4
,8,5
,8,6
,8,7
,8,9
,8,10
,9,1
,9,2
,9,3
,9,4
,9,5
,9,6
,9,7
,9,8
,9,10
,10,1
,10,2
,10,3
,10,4
,10,5
,10,6
,10,7
,10,8
,10,9
]);
c=[
27,
42,
27,
27,
26,
45,
44,
25,
26,
27,
19,
11,
4,
13,
27,
25,
2,
5,
42,
19,
15,
16,
17,
10,
8,
21,
17,
27,
11,
15,
7,
3,
19,
17,
11,
5,
27,
4,
16,
7,
10,
24,
21,
5,
2,
26,
13,
17,
3,
10,
20,
18,
13,
8,
45,
27,
10,
19,
24,
20,
3,
29,
24,
44,
25,
8,
17,
21,
18,
3,
26,
21,
25,
2,
21,
11,
5,
13,
29,
26,
6,
26,
5,
17,
5,
2,
8,
24,
21,
6
];
